50
10877

807 791
594 487
723 941
148 549
383 708
735 353
509 625
269 742
118 676
188 588
554 906
250 409
293 14
573 18
777 929
67 173
440 983
679 736
200 250
677 740
752 767
567 565
222 378
291 117
922 825
216 29
522 272
740 505
995 40
140 55
940 406
643 105
534 853
945 457
948 215
1 962
60 654
526 715
169 670
974 20
405 88
375 288
654 302
95 603
688 227
430 671
494 307
430 424
105 986
164 508
